
&control
calculation = 'nscf',
restart_mode = 'from_scratch',
pseudo_dir = './',
prefix = 'd',
outdir = './',
nstep = 100,
wf_collect = .true.,
verbosity = 'high',
/

&system
ibrav = 4,
A = 2.5124282837
C = 15.000000000
nat = 2,
ntyp = 2,
ecutwfc = 50,
occupations = 'fixed',
force_symmorphic = .true.,
input_dft = 'pbe'
 nbnd = 50
 starting_magnetization(1)=0.01,
 starting_magnetization(2)=0.01,
 noncolin                 = .TRUE.,
 lspinorb                 = .TRUE.,
    tot_charge = 0
    force_symmorphic = .true.
/

&electrons
    diagonalization = 'david'
    diago_thr_init = 1e-6
    mixing_mode = 'plain'
    mixing_beta = 0.7
    conv_thr =  1e-9
    electron_maxstep = 200
    diago_full_acc = .true.
!    startingpot = 'file'
/

ATOMIC_SPECIES
B  10.81000 B_ONCV_PBE_FR-1.0.upf
N  14.01000 N_ONCV_PBE_FR-1.0.upf

ATOMIC_POSITIONS (angstrom)
B     0.000000000         1.450551271         1.926816225
N     1.256214142         0.725275636         1.926816225

K_POINTS automatic
18 18 1 0 0 0



